************************************************************************
file with basedata            : mm4_.bas
initial value random generator: 479127362
************************************************************************
projects                      :  1
jobs (incl. supersource/sink ):  12
horizon                       :  74
RESOURCES
  - renewable                 :  2   R
  - nonrenewable              :  2   N
  - doubly constrained        :  0   D
************************************************************************
PROJECT INFORMATION:
pronr.  #jobs rel.date duedate tardcost  MPM-Time
    1     10      0       12        7       12
************************************************************************
PRECEDENCE RELATIONS:
jobnr.    #modes  #successors   successors
   0        1          3           1   2   3
   1        3          1           8
   2        3          3           7   8   9
   3        3          2           4   5
   4        3          2           7   8
   5        3          2           6   9
   6        3          1          10
   7        3          1          10
   8        3          1          11
   9        3          1          11
  10        3          1          11
  11        1          0        
************************************************************************
REQUESTS/DURATIONS:
jobnr. mode duration  R 1  R 2  R 3  R 4  E(W 1)  E(W 2)
------------------------------------------------------------------------
  0      1     0       0    0    0    0     0       0
  1      1     6       0    8    0    5    48      30
  2      1     2       0    3    5    0     6      10
  3      1     3       7    0    4    0    21      12
  4      1     7       3    0    5    0    21      35
  5      1     1       0    6    0    5     6       5
  6      1     4       1    0    0    6     8      24
  7      1     1       8    0    3    0     8       3
  8      1     2       6    0    7    0    12      14
  9      1     6       0   10    0    6    60      36
 10      1     1       0    9    0    8     9       8
 11      1     0       0    0    0    0     0       0
************************************************************************
RESOURCEAVAILABILITIES:
  R 1  R 2
   16   76
************************************************************************
RESOURCE LIMITS:
jobnr.  l(R 1)  u(R 1)  l(R 2)  u(R 2)
------------------------------------------------------------------------
  0        0       0       0       0
  1        4       8       3       5
  2        2       3       3       5
  3        4       7       2       4
  4        2       3       3       5
  5        3       6       3       5
  6        1       2       3       6
  7        4       8       2       3
  8        3       6       4       7
  9        5      10       3       6
 10        5       9       4       8
 11        0       0       0       0
************************************************************************
SCENARIOS:
------------------------------------------------------------------------
RESOURCE k = 1
s = 1: (0, 54, 5, 30, 26, 8, 10, 7, 8, 85, 9, 0)
s = 2: (0, 35, 9, 19, 24, 9, 5, 11, 10, 45, 9, 0)
s = 3: (0, 29, 7, 32, 16, 6, 9, 8, 12, 69, 7, 0)
s = 4: (0, 52, 11, 13, 28, 8, 8, 9, 11, 61, 8, 0)
s = 5: (0, 34, 7, 22, 29, 6, 8, 8, 14, 74, 10, 0)
s = 6: (0, 48, 7, 19, 20, 5, 11, 9, 17, 71, 6, 0)
s = 7: (0, 33, 8, 18, 18, 7, 6, 7, 22, 50, 6, 0)
s = 8: (0, 33, 6, 13, 29, 9, 10, 9, 18, 59, 9, 0)
s = 9: (0, 35, 7, 27, 18, 6, 12, 8, 7, 69, 8, 0)
s = 10: (0, 52, 6, 25, 16, 6, 6, 6, 12, 80, 8, 0)
s = 11: (0, 36, 5, 13, 15, 9, 13, 6, 12, 63, 9, 0)
s = 12: (0, 65, 7, 17, 23, 8, 8, 11, 10, 41, 10, 0)
s = 13: (0, 30, 9, 22, 15, 5, 8, 8, 16, 56, 6, 0)
s = 14: (0, 30, 4, 17, 11, 5, 7, 9, 14, 40, 7, 0)
s = 15: (0, 61, 5, 17, 22, 8, 5, 8, 8, 44, 11, 0)
s = 16: (0, 72, 5, 37, 32, 5, 9, 6, 15, 47, 7, 0)
s = 17: (0, 62, 6, 19, 20, 6, 7, 8, 12, 58, 14, 0)
s = 18: (0, 62, 5, 36, 25, 6, 9, 12, 13, 48, 6, 0)
s = 19: (0, 74, 5, 26, 13, 7, 5, 12, 15, 71, 8, 0)
s = 20: (0, 75, 5, 17, 27, 4, 10, 8, 10, 50, 12, 0)
s = 21: (0, 50, 6, 34, 29, 5, 6, 9, 10, 64, 10, 0)
s = 22: (0, 66, 8, 14, 22, 6, 9, 8, 7, 72, 14, 0)
s = 23: (0, 25, 4, 36, 23, 5, 10, 10, 10, 73, 10, 0)
s = 24: (0, 33, 6, 22, 14, 5, 7, 12, 16, 64, 9, 0)
s = 25: (0, 56, 9, 22, 20, 7, 10, 6, 20, 72, 11, 0)
s = 26: (0, 85, 10, 18, 15, 6, 7, 7, 17, 59, 10, 0)
s = 27: (0, 41, 13, 14, 14, 5, 9, 9, 17, 39, 8, 0)
s = 28: (0, 42, 7, 18, 28, 5, 13, 7, 8, 60, 14, 0)
s = 29: (0, 51, 5, 19, 14, 4, 7, 12, 14, 61, 7, 0)
s = 30: (0, 47, 7, 23, 22, 5, 9, 10, 11, 71, 6, 0)
s = 31: (0, 35, 6, 24, 14, 8, 13, 8, 17, 52, 14, 0)
s = 32: (0, 74, 7, 15, 15, 6, 7, 5, 8, 82, 9, 0)
s = 33: (0, 53, 6, 21, 16, 4, 9, 10, 15, 57, 9, 0)
s = 34: (0, 49, 7, 19, 20, 5, 6, 13, 11, 49, 7, 0)
s = 35: (0, 77, 6, 19, 21, 7, 7, 7, 7, 62, 13, 0)
s = 36: (0, 45, 7, 14, 27, 6, 6, 9, 11, 58, 6, 0)
s = 37: (0, 60, 5, 22, 25, 8, 11, 8, 16, 45, 8, 0)
s = 38: (0, 79, 5, 24, 25, 7, 10, 6, 15, 41, 11, 0)
s = 39: (0, 69, 7, 22, 19, 4, 7, 10, 8, 44, 8, 0)
s = 40: (0, 36, 5, 13, 27, 8, 11, 13, 9, 67, 8, 0)
s = 41: (0, 38, 5, 24, 24, 7, 8, 10, 9, 50, 13, 0)
s = 42: (0, 37, 7, 18, 12, 6, 9, 9, 13, 44, 7, 0)
s = 43: (0, 48, 5, 18, 24, 9, 10, 9, 7, 73, 9, 0)
s = 44: (0, 62, 12, 25, 15, 4, 16, 7, 11, 55, 6, 0)
s = 45: (0, 46, 5, 24, 14, 4, 8, 7, 15, 68, 7, 0)
s = 46: (0, 52, 9, 17, 34, 5, 5, 6, 11, 41, 10, 0)
s = 47: (0, 28, 5, 27, 21, 5, 5, 6, 11, 71, 16, 0)
s = 48: (0, 33, 5, 35, 19, 8, 13, 7, 14, 57, 12, 0)
s = 49: (0, 57, 7, 20, 17, 6, 5, 7, 17, 59, 10, 0)
s = 50: (0, 31, 9, 13, 19, 6, 11, 7, 8, 46, 9, 0)
s = 51: (0, 66, 11, 21, 25, 5, 10, 11, 11, 84, 9, 0)
s = 52: (0, 60, 10, 25, 34, 9, 7, 6, 9, 65, 8, 0)
s = 53: (0, 40, 6, 35, 13, 5, 6, 11, 10, 91, 8, 0)
s = 54: (0, 32, 7, 21, 29, 8, 6, 12, 8, 56, 13, 0)
s = 55: (0, 32, 4, 31, 20, 5, 9, 8, 18, 51, 12, 0)
s = 56: (0, 41, 8, 21, 12, 7, 8, 7, 13, 60, 14, 0)
s = 57: (0, 66, 8, 15, 18, 4, 7, 9, 9, 39, 13, 0)
s = 58: (0, 47, 4, 20, 21, 6, 13, 10, 8, 85, 13, 0)
s = 59: (0, 62, 4, 15, 25, 5, 11, 6, 12, 58, 9, 0)
s = 60: (0, 61, 6, 21, 25, 7, 6, 8, 16, 63, 9, 0)
s = 61: (0, 44, 6, 15, 28, 6, 10, 7, 21, 36, 7, 0)
s = 62: (0, 43, 4, 20, 17, 6, 9, 7, 11, 52, 13, 0)
s = 63: (0, 40, 7, 29, 25, 7, 9, 5, 9, 49, 10, 0)
s = 64: (0, 36, 5, 23, 22, 7, 6, 6, 16, 56, 11, 0)
s = 65: (0, 44, 9, 24, 20, 7, 9, 10, 22, 103, 8, 0)
s = 66: (0, 43, 8, 22, 16, 7, 11, 8, 10, 63, 12, 0)
s = 67: (0, 66, 4, 27, 21, 4, 9, 6, 10, 44, 10, 0)
s = 68: (0, 42, 10, 24, 21, 6, 6, 7, 16, 50, 9, 0)
s = 69: (0, 49, 8, 35, 26, 6, 5, 8, 9, 49, 9, 0)
s = 70: (0, 55, 4, 17, 22, 8, 7, 7, 9, 44, 5, 0)
s = 71: (0, 36, 7, 33, 24, 6, 6, 10, 13, 104, 6, 0)
s = 72: (0, 46, 8, 24, 19, 6, 8, 7, 14, 46, 13, 0)
s = 73: (0, 45, 9, 18, 21, 6, 8, 9, 17, 42, 9, 0)
s = 74: (0, 44, 7, 19, 29, 8, 7, 7, 11, 112, 9, 0)
s = 75: (0, 52, 8, 14, 24, 5, 9, 7, 14, 37, 12, 0)
s = 76: (0, 30, 9, 23, 19, 6, 6, 9, 15, 46, 8, 0)
s = 77: (0, 53, 9, 21, 27, 7, 8, 9, 16, 79, 6, 0)
s = 78: (0, 38, 6, 16, 18, 5, 13, 7, 12, 50, 9, 0)
s = 79: (0, 43, 5, 17, 12, 6, 9, 10, 14, 84, 7, 0)
s = 80: (0, 48, 6, 19, 37, 7, 9, 9, 16, 40, 10, 0)
s = 81: (0, 38, 4, 19, 19, 6, 6, 6, 13, 70, 8, 0)
s = 82: (0, 52, 6, 18, 17, 7, 13, 15, 9, 59, 8, 0)
s = 83: (0, 51, 7, 21, 21, 7, 6, 10, 11, 97, 6, 0)
s = 84: (0, 46, 7, 16, 14, 7, 8, 7, 15, 73, 10, 0)
s = 85: (0, 41, 7, 13, 16, 8, 6, 6, 9, 43, 11, 0)
s = 86: (0, 48, 7, 27, 30, 9, 11, 6, 10, 69, 10, 0)
s = 87: (0, 56, 8, 19, 15, 6, 9, 10, 12, 56, 7, 0)
s = 88: (0, 38, 4, 23, 19, 4, 12, 10, 15, 54, 9, 0)
s = 89: (0, 49, 8, 24, 20, 4, 13, 7, 8, 56, 7, 0)
s = 90: (0, 53, 6, 23, 20, 6, 9, 9, 12, 80, 11, 0)
s = 91: (0, 69, 5, 24, 17, 8, 8, 7, 12, 72, 9, 0)
s = 92: (0, 29, 7, 25, 13, 6, 6, 7, 11, 111, 10, 0)
s = 93: (0, 37, 8, 17, 21, 4, 10, 10, 10, 52, 10, 0)
s = 94: (0, 55, 5, 16, 24, 7, 6, 13, 12, 55, 9, 0)
s = 95: (0, 43, 4, 19, 18, 8, 10, 9, 16, 78, 6, 0)
s = 96: (0, 70, 8, 19, 16, 6, 7, 5, 20, 36, 11, 0)
s = 97: (0, 41, 6, 31, 14, 4, 9, 7, 14, 65, 9, 0)
s = 98: (0, 61, 6, 22, 13, 7, 7, 9, 14, 38, 8, 0)
s = 99: (0, 46, 6, 21, 22, 6, 9, 12, 13, 52, 8, 0)
s = 100: (0, 43, 9, 25, 26, 11, 9, 8, 7, 92, 8, 0)
s = 101: (0, 61, 7, 21, 16, 8, 5, 9, 13, 50, 10, 0)
s = 102: (0, 54, 11, 28, 18, 6, 7, 10, 14, 46, 7, 0)
s = 103: (0, 46, 6, 18, 12, 9, 6, 12, 18, 48, 8, 0)
s = 104: (0, 36, 10, 23, 19, 4, 5, 11, 9, 84, 7, 0)
s = 105: (0, 51, 5, 13, 21, 5, 10, 11, 17, 63, 6, 0)
s = 106: (0, 30, 7, 21, 27, 4, 11, 6, 9, 66, 10, 0)
s = 107: (0, 52, 6, 20, 16, 7, 10, 6, 19, 31, 11, 0)
s = 108: (0, 70, 8, 16, 31, 8, 10, 16, 14, 43, 13, 0)
s = 109: (0, 58, 7, 26, 13, 6, 8, 11, 8, 53, 11, 0)
s = 110: (0, 51, 7, 21, 15, 8, 6, 6, 13, 68, 8, 0)
s = 111: (0, 28, 8, 19, 18, 7, 7, 5, 19, 48, 6, 0)
s = 112: (0, 39, 7, 21, 19, 8, 6, 8, 12, 60, 5, 0)
s = 113: (0, 40, 5, 18, 24, 6, 8, 6, 18, 47, 11, 0)
s = 114: (0, 50, 5, 12, 14, 6, 7, 8, 13, 82, 14, 0)
s = 115: (0, 36, 5, 19, 15, 5, 7, 13, 9, 71, 13, 0)
s = 116: (0, 51, 9, 18, 18, 9, 9, 8, 17, 37, 9, 0)
s = 117: (0, 63, 5, 23, 19, 6, 13, 6, 14, 73, 9, 0)
s = 118: (0, 49, 6, 26, 19, 5, 6, 12, 17, 50, 11, 0)
s = 119: (0, 52, 6, 20, 22, 4, 6, 8, 11, 51, 10, 0)
s = 120: (0, 57, 8, 35, 27, 5, 9, 10, 13, 51, 7, 0)
s = 121: (0, 61, 5, 31, 20, 4, 8, 13, 8, 66, 6, 0)
s = 122: (0, 69, 7, 22, 16, 5, 8, 9, 14, 35, 11, 0)
s = 123: (0, 30, 7, 16, 28, 10, 8, 13, 11, 92, 11, 0)
s = 124: (0, 40, 11, 13, 22, 8, 9, 9, 10, 51, 9, 0)
s = 125: (0, 61, 6, 22, 18, 7, 7, 10, 12, 37, 6, 0)
s = 126: (0, 34, 6, 33, 14, 6, 7, 6, 9, 72, 5, 0)
s = 127: (0, 83, 8, 35, 19, 5, 12, 11, 12, 51, 6, 0)
s = 128: (0, 31, 7, 20, 16, 7, 8, 5, 13, 45, 13, 0)
s = 129: (0, 87, 6, 24, 23, 6, 7, 5, 15, 40, 8, 0)
s = 130: (0, 45, 9, 26, 13, 7, 7, 12, 20, 62, 10, 0)
s = 131: (0, 32, 6, 33, 27, 5, 10, 8, 7, 58, 13, 0)
s = 132: (0, 57, 6, 27, 36, 7, 9, 6, 13, 61, 12, 0)
s = 133: (0, 64, 4, 24, 20, 5, 10, 12, 12, 53, 11, 0)
s = 134: (0, 34, 6, 27, 26, 5, 10, 9, 14, 53, 9, 0)
s = 135: (0, 46, 8, 23, 15, 6, 9, 7, 14, 60, 12, 0)
s = 136: (0, 37, 6, 22, 14, 5, 10, 6, 12, 62, 11, 0)
s = 137: (0, 44, 4, 22, 23, 4, 7, 6, 10, 54, 5, 0)
s = 138: (0, 48, 8, 22, 24, 7, 14, 9, 13, 56, 10, 0)
s = 139: (0, 26, 6, 22, 36, 8, 7, 11, 13, 59, 14, 0)
s = 140: (0, 42, 6, 14, 20, 5, 10, 10, 10, 46, 9, 0)
s = 141: (0, 43, 6, 20, 29, 4, 6, 7, 11, 49, 7, 0)
s = 142: (0, 35, 5, 32, 18, 5, 17, 7, 12, 64, 6, 0)
s = 143: (0, 47, 8, 27, 30, 7, 6, 6, 11, 46, 10, 0)
s = 144: (0, 46, 6, 16, 22, 8, 8, 9, 9, 44, 9, 0)
s = 145: (0, 40, 4, 28, 16, 5, 9, 7, 10, 48, 11, 0)
s = 146: (0, 45, 9, 20, 16, 6, 9, 5, 14, 70, 6, 0)
s = 147: (0, 40, 7, 16, 17, 6, 14, 7, 13, 44, 13, 0)
s = 148: (0, 63, 11, 21, 15, 9, 12, 14, 7, 47, 14, 0)
s = 149: (0, 37, 5, 32, 28, 6, 9, 10, 17, 60, 7, 0)
s = 150: (0, 67, 9, 24, 13, 6, 8, 9, 15, 72, 10, 0)
s = 151: (0, 52, 8, 17, 17, 7, 13, 7, 9, 53, 10, 0)
s = 152: (0, 49, 7, 25, 21, 4, 8, 8, 9, 50, 6, 0)
s = 153: (0, 61, 9, 20, 30, 6, 10, 9, 13, 50, 10, 0)
s = 154: (0, 57, 8, 28, 20, 5, 8, 9, 7, 66, 15, 0)
s = 155: (0, 72, 5, 25, 13, 6, 10, 7, 11, 73, 8, 0)
s = 156: (0, 41, 8, 21, 24, 5, 10, 5, 13, 66, 10, 0)
s = 157: (0, 39, 4, 18, 21, 8, 7, 6, 11, 45, 12, 0)
s = 158: (0, 64, 9, 17, 30, 4, 5, 6, 9, 55, 8, 0)
s = 159: (0, 39, 6, 19, 12, 6, 13, 10, 12, 43, 8, 0)
s = 160: (0, 35, 7, 13, 19, 6, 8, 12, 9, 59, 8, 0)
s = 161: (0, 36, 5, 22, 25, 5, 7, 7, 8, 90, 10, 0)
s = 162: (0, 73, 10, 14, 28, 6, 7, 9, 20, 63, 9, 0)
s = 163: (0, 53, 4, 20, 22, 7, 7, 8, 9, 55, 8, 0)
s = 164: (0, 33, 7, 17, 19, 7, 14, 7, 13, 35, 7, 0)
s = 165: (0, 55, 5, 16, 28, 4, 9, 5, 16, 53, 10, 0)
s = 166: (0, 42, 5, 16, 34, 7, 7, 9, 9, 42, 14, 0)
s = 167: (0, 29, 7, 21, 27, 6, 8, 6, 9, 68, 10, 0)
s = 168: (0, 59, 8, 23, 26, 5, 8, 7, 9, 60, 7, 0)
s = 169: (0, 31, 7, 18, 20, 6, 9, 10, 9, 68, 9, 0)
s = 170: (0, 48, 5, 26, 22, 7, 11, 8, 11, 87, 13, 0)
s = 171: (0, 43, 8, 27, 21, 8, 11, 6, 15, 32, 8, 0)
s = 172: (0, 56, 5, 15, 18, 5, 10, 6, 11, 43, 8, 0)
s = 173: (0, 32, 7, 15, 16, 5, 8, 8, 16, 62, 10, 0)
s = 174: (0, 50, 6, 14, 27, 9, 9, 12, 15, 43, 8, 0)
s = 175: (0, 43, 5, 25, 25, 5, 8, 8, 15, 55, 9, 0)
s = 176: (0, 46, 6, 21, 29, 5, 9, 7, 17, 39, 9, 0)
s = 177: (0, 45, 4, 24, 18, 7, 8, 10, 12, 75, 9, 0)
s = 178: (0, 36, 6, 14, 19, 7, 14, 7, 8, 45, 8, 0)
s = 179: (0, 70, 6, 28, 13, 7, 6, 8, 12, 60, 9, 0)
s = 180: (0, 43, 4, 13, 21, 10, 13, 8, 9, 56, 9, 0)
s = 181: (0, 32, 8, 18, 15, 9, 10, 5, 13, 42, 11, 0)
s = 182: (0, 35, 8, 21, 29, 9, 8, 5, 18, 36, 8, 0)
s = 183: (0, 30, 5, 15, 32, 6, 7, 10, 12, 45, 14, 0)
s = 184: (0, 41, 6, 24, 20, 7, 7, 9, 9, 60, 10, 0)
s = 185: (0, 36, 4, 26, 29, 6, 12, 8, 13, 68, 13, 0)
s = 186: (0, 56, 4, 24, 28, 6, 9, 11, 15, 60, 12, 0)
s = 187: (0, 38, 7, 22, 23, 6, 8, 8, 9, 49, 11, 0)
s = 188: (0, 56, 8, 12, 16, 5, 10, 11, 9, 48, 11, 0)
s = 189: (0, 55, 4, 22, 26, 6, 8, 8, 16, 48, 6, 0)
s = 190: (0, 57, 7, 17, 29, 5, 6, 8, 12, 56, 6, 0)
s = 191: (0, 68, 4, 25, 28, 7, 12, 8, 12, 43, 8, 0)
s = 192: (0, 68, 7, 13, 14, 7, 12, 8, 11, 69, 12, 0)
s = 193: (0, 60, 6, 21, 30, 5, 12, 9, 14, 89, 7, 0)
s = 194: (0, 51, 7, 28, 27, 7, 8, 7, 10, 51, 7, 0)
s = 195: (0, 41, 6, 24, 24, 4, 6, 7, 12, 64, 11, 0)
s = 196: (0, 35, 6, 28, 26, 8, 5, 6, 18, 47, 7, 0)
s = 197: (0, 55, 9, 19, 25, 8, 5, 9, 9, 61, 11, 0)
s = 198: (0, 39, 6, 16, 19, 4, 11, 8, 18, 86, 11, 0)
s = 199: (0, 46, 9, 33, 32, 6, 7, 10, 9, 54, 6, 0)
s = 200: (0, 35, 5, 14, 16, 8, 7, 12, 9, 44, 11, 0)
------------------------------------------------------------------------
RESOURCE k = 2
s = 1: (0, 34, 9, 17, 42, 7, 30, 3, 9, 51, 8, 0)
s = 2: (0, 22, 15, 11, 40, 7, 15, 4, 12, 27, 8, 0)
s = 3: (0, 19, 11, 18, 27, 5, 27, 3, 14, 41, 6, 0)
s = 4: (0, 33, 19, 8, 46, 7, 24, 4, 13, 37, 7, 0)
s = 5: (0, 22, 11, 13, 48, 5, 22, 3, 16, 44, 9, 0)
s = 6: (0, 30, 11, 11, 33, 5, 33, 4, 20, 43, 6, 0)
s = 7: (0, 21, 13, 10, 30, 6, 18, 3, 25, 30, 6, 0)
s = 8: (0, 21, 10, 8, 49, 8, 28, 4, 21, 36, 8, 0)
s = 9: (0, 22, 12, 15, 30, 5, 34, 3, 8, 42, 7, 0)
s = 10: (0, 33, 10, 14, 26, 5, 16, 3, 14, 48, 7, 0)
s = 11: (0, 22, 8, 8, 24, 7, 39, 2, 14, 38, 8, 0)
s = 12: (0, 41, 11, 10, 38, 6, 23, 4, 11, 25, 9, 0)
s = 13: (0, 19, 14, 13, 25, 4, 22, 3, 18, 34, 6, 0)
s = 14: (0, 19, 7, 10, 19, 4, 19, 4, 16, 24, 6, 0)
s = 15: (0, 38, 9, 10, 36, 7, 15, 3, 9, 26, 9, 0)
s = 16: (0, 45, 8, 22, 53, 4, 26, 3, 18, 28, 7, 0)
s = 17: (0, 39, 10, 11, 33, 5, 21, 3, 14, 35, 12, 0)
s = 18: (0, 39, 7, 21, 41, 5, 26, 5, 16, 29, 6, 0)
s = 19: (0, 46, 7, 15, 22, 6, 14, 5, 17, 43, 7, 0)
s = 20: (0, 47, 8, 10, 44, 4, 29, 3, 12, 30, 10, 0)
s = 21: (0, 31, 10, 20, 48, 4, 16, 4, 11, 39, 9, 0)
s = 22: (0, 41, 13, 8, 36, 5, 25, 3, 9, 43, 12, 0)
s = 23: (0, 16, 6, 21, 38, 5, 29, 4, 12, 44, 9, 0)
s = 24: (0, 21, 10, 13, 23, 4, 20, 5, 19, 39, 8, 0)
s = 25: (0, 35, 14, 13, 34, 6, 30, 2, 23, 44, 10, 0)
s = 26: (0, 54, 16, 10, 25, 5, 21, 3, 20, 35, 9, 0)
s = 27: (0, 26, 21, 8, 23, 4, 27, 4, 20, 23, 7, 0)
s = 28: (0, 27, 11, 10, 46, 4, 39, 3, 9, 36, 12, 0)
s = 29: (0, 32, 8, 11, 24, 3, 20, 5, 16, 37, 6, 0)
s = 30: (0, 30, 11, 14, 36, 4, 26, 4, 13, 43, 6, 0)
s = 31: (0, 22, 10, 14, 23, 7, 38, 3, 19, 31, 12, 0)
s = 32: (0, 47, 12, 9, 25, 5, 21, 2, 9, 49, 8, 0)
s = 33: (0, 33, 9, 12, 27, 3, 26, 4, 17, 34, 8, 0)
s = 34: (0, 31, 11, 11, 33, 4, 17, 5, 13, 29, 6, 0)
s = 35: (0, 48, 10, 11, 35, 6, 20, 3, 8, 37, 11, 0)
s = 36: (0, 28, 12, 8, 44, 5, 18, 4, 13, 35, 6, 0)
s = 37: (0, 38, 8, 13, 41, 7, 31, 3, 19, 27, 7, 0)
s = 38: (0, 50, 7, 14, 41, 6, 30, 3, 17, 25, 10, 0)
s = 39: (0, 43, 12, 13, 32, 4, 20, 4, 10, 27, 7, 0)
s = 40: (0, 23, 8, 8, 45, 7, 33, 5, 11, 41, 8, 0)
s = 41: (0, 24, 9, 14, 39, 6, 23, 4, 11, 30, 11, 0)
s = 42: (0, 23, 11, 10, 20, 5, 26, 4, 16, 26, 6, 0)
s = 43: (0, 30, 7, 11, 40, 7, 30, 4, 8, 44, 8, 0)
s = 44: (0, 39, 19, 15, 25, 3, 47, 3, 13, 33, 6, 0)
s = 45: (0, 29, 9, 14, 23, 3, 22, 3, 17, 41, 6, 0)
s = 46: (0, 32, 14, 10, 57, 5, 15, 3, 13, 25, 9, 0)
s = 47: (0, 18, 9, 16, 34, 4, 13, 3, 13, 43, 14, 0)
s = 48: (0, 21, 8, 20, 31, 7, 39, 3, 17, 35, 10, 0)
s = 49: (0, 36, 11, 12, 27, 5, 15, 3, 20, 36, 9, 0)
s = 50: (0, 19, 15, 8, 31, 5, 31, 3, 9, 28, 8, 0)
s = 51: (0, 42, 19, 12, 41, 4, 28, 4, 12, 50, 8, 0)
s = 52: (0, 38, 16, 15, 57, 8, 21, 2, 11, 39, 7, 0)
s = 53: (0, 25, 10, 20, 22, 4, 17, 4, 12, 55, 7, 0)
s = 54: (0, 20, 12, 12, 47, 7, 17, 5, 10, 34, 11, 0)
s = 55: (0, 20, 7, 18, 34, 4, 27, 3, 20, 31, 10, 0)
s = 56: (0, 26, 12, 12, 20, 6, 24, 3, 15, 36, 12, 0)
s = 57: (0, 42, 13, 9, 30, 3, 20, 4, 10, 24, 11, 0)
s = 58: (0, 30, 7, 11, 34, 5, 38, 4, 9, 51, 12, 0)
s = 59: (0, 39, 7, 9, 41, 5, 32, 3, 14, 35, 8, 0)
s = 60: (0, 38, 10, 12, 41, 6, 17, 3, 19, 38, 8, 0)
s = 61: (0, 27, 10, 9, 46, 5, 30, 3, 24, 22, 6, 0)
s = 62: (0, 27, 7, 12, 27, 5, 26, 3, 12, 31, 12, 0)
s = 63: (0, 25, 11, 17, 42, 6, 26, 2, 10, 30, 9, 0)
s = 64: (0, 23, 9, 13, 37, 6, 16, 3, 18, 34, 10, 0)
s = 65: (0, 28, 15, 14, 33, 6, 27, 4, 25, 62, 7, 0)
s = 66: (0, 27, 14, 13, 26, 6, 31, 3, 11, 38, 11, 0)
s = 67: (0, 42, 7, 16, 35, 4, 26, 2, 12, 27, 9, 0)
s = 68: (0, 27, 16, 14, 35, 5, 18, 3, 18, 30, 8, 0)
s = 69: (0, 31, 13, 20, 43, 5, 13, 3, 10, 29, 8, 0)
s = 70: (0, 34, 7, 10, 37, 6, 20, 3, 10, 26, 5, 0)
s = 71: (0, 22, 11, 19, 40, 5, 17, 4, 15, 63, 6, 0)
s = 72: (0, 29, 12, 14, 31, 5, 22, 3, 16, 28, 11, 0)
s = 73: (0, 29, 14, 11, 34, 5, 24, 4, 20, 25, 8, 0)
s = 74: (0, 27, 11, 11, 48, 7, 19, 3, 13, 67, 8, 0)
s = 75: (0, 33, 14, 8, 39, 4, 25, 3, 17, 23, 11, 0)
s = 76: (0, 19, 15, 13, 31, 5, 16, 4, 17, 28, 7, 0)
s = 77: (0, 33, 15, 12, 45, 6, 22, 4, 18, 48, 5, 0)
s = 78: (0, 24, 9, 9, 29, 4, 38, 3, 14, 30, 8, 0)
s = 79: (0, 27, 8, 10, 20, 5, 26, 4, 16, 51, 6, 0)
s = 80: (0, 30, 10, 11, 62, 6, 25, 4, 18, 24, 9, 0)
s = 81: (0, 24, 7, 11, 32, 5, 16, 3, 15, 42, 7, 0)
s = 82: (0, 33, 10, 10, 29, 6, 37, 6, 11, 36, 7, 0)
s = 83: (0, 32, 11, 12, 34, 6, 18, 4, 13, 59, 6, 0)
s = 84: (0, 29, 12, 10, 22, 6, 24, 3, 17, 44, 9, 0)
s = 85: (0, 26, 12, 8, 26, 6, 18, 3, 10, 26, 10, 0)
s = 86: (0, 30, 12, 16, 50, 7, 33, 2, 11, 41, 9, 0)
s = 87: (0, 35, 13, 11, 25, 5, 25, 4, 13, 34, 6, 0)
s = 88: (0, 24, 7, 13, 31, 4, 36, 4, 17, 33, 8, 0)
s = 89: (0, 31, 13, 14, 33, 3, 38, 3, 9, 34, 6, 0)
s = 90: (0, 33, 9, 13, 32, 5, 26, 4, 14, 48, 10, 0)
s = 91: (0, 43, 8, 14, 29, 7, 23, 3, 14, 44, 8, 0)
s = 92: (0, 18, 11, 14, 21, 5, 18, 3, 13, 67, 9, 0)
s = 93: (0, 23, 14, 10, 35, 3, 30, 4, 12, 31, 9, 0)
s = 94: (0, 35, 8, 10, 40, 6, 16, 5, 14, 33, 8, 0)
s = 95: (0, 27, 7, 11, 29, 7, 28, 4, 19, 47, 5, 0)
s = 96: (0, 44, 12, 11, 26, 5, 21, 2, 24, 22, 10, 0)
s = 97: (0, 26, 9, 18, 23, 4, 25, 3, 16, 39, 8, 0)
s = 98: (0, 39, 10, 13, 21, 6, 21, 4, 17, 23, 7, 0)
s = 99: (0, 29, 10, 12, 36, 5, 26, 5, 15, 31, 7, 0)
s = 100: (0, 27, 14, 14, 43, 9, 25, 3, 8, 55, 7, 0)
s = 101: (0, 38, 11, 12, 26, 6, 15, 4, 15, 30, 9, 0)
s = 102: (0, 34, 17, 16, 30, 5, 20, 4, 17, 28, 6, 0)
s = 103: (0, 29, 9, 10, 19, 7, 17, 5, 21, 29, 8, 0)
s = 104: (0, 23, 16, 14, 31, 3, 15, 5, 10, 51, 6, 0)
s = 105: (0, 32, 9, 8, 35, 4, 30, 4, 20, 38, 5, 0)
s = 106: (0, 19, 11, 12, 45, 4, 32, 3, 10, 40, 9, 0)
s = 107: (0, 32, 9, 12, 26, 6, 29, 3, 22, 19, 10, 0)
s = 108: (0, 44, 13, 9, 51, 7, 28, 6, 16, 26, 11, 0)
s = 109: (0, 37, 12, 15, 21, 5, 23, 4, 10, 32, 10, 0)
s = 110: (0, 32, 12, 12, 25, 7, 16, 3, 15, 41, 7, 0)
s = 111: (0, 18, 13, 11, 29, 6, 19, 2, 23, 29, 6, 0)
s = 112: (0, 25, 11, 12, 31, 6, 18, 3, 14, 36, 5, 0)
s = 113: (0, 25, 8, 10, 40, 5, 23, 2, 21, 28, 10, 0)
s = 114: (0, 31, 8, 7, 24, 5, 19, 3, 15, 49, 13, 0)
s = 115: (0, 22, 7, 11, 24, 4, 20, 5, 11, 43, 11, 0)
s = 116: (0, 32, 15, 11, 30, 7, 25, 3, 19, 23, 8, 0)
s = 117: (0, 40, 8, 13, 31, 5, 37, 2, 16, 44, 8, 0)
s = 118: (0, 31, 10, 15, 31, 4, 17, 5, 20, 30, 10, 0)
s = 119: (0, 33, 10, 12, 37, 3, 18, 3, 13, 31, 9, 0)
s = 120: (0, 36, 13, 20, 45, 4, 26, 4, 15, 31, 7, 0)
s = 121: (0, 38, 8, 18, 32, 4, 24, 5, 9, 40, 6, 0)
s = 122: (0, 43, 11, 13, 26, 4, 23, 4, 17, 21, 9, 0)
s = 123: (0, 19, 11, 9, 46, 8, 23, 5, 12, 56, 10, 0)
s = 124: (0, 25, 17, 8, 37, 6, 25, 4, 12, 31, 8, 0)
s = 125: (0, 38, 9, 13, 30, 6, 19, 4, 13, 22, 5, 0)
s = 126: (0, 21, 9, 19, 22, 5, 21, 3, 11, 44, 5, 0)
s = 127: (0, 52, 13, 20, 31, 4, 34, 4, 14, 31, 6, 0)
s = 128: (0, 19, 11, 12, 26, 6, 23, 2, 15, 27, 11, 0)
s = 129: (0, 55, 10, 14, 39, 5, 21, 2, 17, 24, 7, 0)
s = 130: (0, 28, 15, 15, 21, 6, 20, 5, 24, 37, 9, 0)
s = 131: (0, 20, 10, 19, 45, 4, 29, 3, 8, 35, 11, 0)
s = 132: (0, 36, 10, 16, 60, 6, 26, 3, 15, 37, 11, 0)
s = 133: (0, 40, 6, 14, 32, 4, 30, 5, 14, 32, 10, 0)
s = 134: (0, 21, 10, 16, 42, 4, 28, 4, 16, 32, 8, 0)
s = 135: (0, 29, 13, 14, 24, 5, 25, 3, 17, 36, 10, 0)
s = 136: (0, 23, 9, 13, 24, 4, 28, 3, 14, 37, 10, 0)
s = 137: (0, 28, 6, 13, 37, 4, 21, 3, 11, 33, 5, 0)
s = 138: (0, 30, 13, 13, 40, 6, 40, 4, 15, 34, 9, 0)
s = 139: (0, 16, 9, 13, 60, 7, 21, 4, 15, 35, 13, 0)
s = 140: (0, 26, 10, 8, 33, 5, 30, 4, 12, 28, 8, 0)
s = 141: (0, 27, 9, 12, 49, 4, 17, 3, 13, 30, 7, 0)
s = 142: (0, 22, 9, 18, 29, 4, 51, 3, 14, 39, 5, 0)
s = 143: (0, 30, 12, 15, 50, 6, 17, 3, 12, 28, 9, 0)
s = 144: (0, 29, 9, 9, 36, 7, 23, 4, 11, 27, 8, 0)
s = 145: (0, 25, 6, 16, 26, 4, 26, 3, 11, 29, 10, 0)
s = 146: (0, 29, 14, 11, 26, 5, 26, 2, 16, 42, 5, 0)
s = 147: (0, 25, 12, 9, 28, 5, 40, 3, 15, 27, 11, 0)
s = 148: (0, 39, 18, 12, 25, 8, 34, 6, 8, 28, 13, 0)
s = 149: (0, 23, 8, 19, 46, 5, 26, 4, 20, 36, 7, 0)
s = 150: (0, 42, 14, 14, 21, 5, 22, 4, 17, 43, 9, 0)
s = 151: (0, 32, 13, 10, 28, 6, 39, 3, 10, 32, 9, 0)
s = 152: (0, 31, 11, 15, 35, 4, 24, 3, 10, 30, 6, 0)
s = 153: (0, 38, 15, 11, 50, 5, 29, 4, 15, 30, 9, 0)
s = 154: (0, 36, 13, 16, 33, 4, 23, 4, 8, 40, 14, 0)
s = 155: (0, 45, 9, 14, 21, 5, 29, 3, 13, 44, 7, 0)
s = 156: (0, 26, 13, 12, 40, 4, 30, 2, 15, 40, 9, 0)
s = 157: (0, 24, 7, 11, 34, 7, 20, 3, 12, 27, 11, 0)
s = 158: (0, 40, 15, 10, 50, 3, 14, 3, 11, 33, 7, 0)
s = 159: (0, 24, 10, 11, 20, 5, 39, 4, 14, 26, 7, 0)
s = 160: (0, 22, 11, 8, 31, 5, 23, 5, 11, 35, 7, 0)
s = 161: (0, 23, 8, 13, 41, 4, 19, 3, 9, 54, 9, 0)
s = 162: (0, 46, 16, 8, 46, 5, 21, 4, 23, 38, 8, 0)
s = 163: (0, 33, 7, 12, 36, 6, 20, 3, 11, 33, 7, 0)
s = 164: (0, 21, 11, 10, 31, 6, 42, 3, 15, 21, 7, 0)
s = 165: (0, 34, 7, 9, 46, 3, 27, 2, 19, 32, 9, 0)
s = 166: (0, 26, 7, 9, 56, 6, 20, 4, 11, 25, 13, 0)
s = 167: (0, 19, 11, 12, 44, 5, 22, 3, 10, 41, 9, 0)
s = 168: (0, 37, 13, 14, 43, 4, 22, 3, 10, 36, 6, 0)
s = 169: (0, 20, 12, 11, 32, 5, 27, 4, 10, 41, 8, 0)
s = 170: (0, 30, 8, 15, 36, 6, 31, 3, 13, 52, 12, 0)
s = 171: (0, 27, 13, 15, 34, 7, 33, 3, 18, 20, 7, 0)
s = 172: (0, 35, 8, 9, 29, 4, 30, 3, 13, 26, 7, 0)
s = 173: (0, 20, 11, 9, 26, 4, 22, 3, 19, 37, 9, 0)
s = 174: (0, 31, 10, 8, 44, 8, 27, 5, 17, 26, 7, 0)
s = 175: (0, 27, 8, 14, 41, 4, 22, 3, 18, 33, 8, 0)
s = 176: (0, 29, 10, 12, 49, 4, 26, 3, 20, 24, 8, 0)
s = 177: (0, 28, 6, 14, 30, 6, 23, 4, 13, 45, 8, 0)
s = 178: (0, 22, 9, 8, 31, 6, 41, 3, 9, 27, 7, 0)
s = 179: (0, 44, 10, 16, 22, 6, 17, 3, 14, 36, 8, 0)
s = 180: (0, 27, 6, 7, 34, 8, 37, 3, 10, 34, 8, 0)
s = 181: (0, 20, 13, 10, 24, 7, 28, 2, 16, 25, 10, 0)
s = 182: (0, 22, 12, 12, 48, 8, 23, 2, 21, 22, 7, 0)
s = 183: (0, 19, 8, 9, 54, 5, 19, 4, 14, 27, 12, 0)
s = 184: (0, 26, 10, 14, 32, 6, 19, 4, 11, 36, 9, 0)
s = 185: (0, 23, 6, 15, 48, 5, 34, 3, 16, 41, 11, 0)
s = 186: (0, 35, 7, 14, 46, 5, 26, 5, 17, 36, 11, 0)
s = 187: (0, 24, 12, 13, 37, 5, 22, 3, 10, 30, 9, 0)
s = 188: (0, 35, 13, 7, 26, 5, 28, 5, 10, 29, 10, 0)
s = 189: (0, 35, 7, 13, 43, 5, 23, 3, 19, 29, 6, 0)
s = 190: (0, 36, 12, 10, 48, 4, 18, 3, 14, 34, 6, 0)
s = 191: (0, 43, 7, 14, 47, 6, 34, 3, 14, 26, 7, 0)
s = 192: (0, 42, 11, 8, 23, 6, 35, 3, 13, 41, 11, 0)
s = 193: (0, 37, 10, 12, 49, 4, 36, 4, 16, 54, 6, 0)
s = 194: (0, 32, 12, 16, 45, 6, 22, 3, 11, 31, 6, 0)
s = 195: (0, 26, 9, 14, 40, 3, 18, 3, 14, 39, 9, 0)
s = 196: (0, 22, 9, 16, 43, 6, 14, 2, 20, 28, 6, 0)
s = 197: (0, 34, 14, 11, 41, 7, 15, 4, 10, 37, 10, 0)
s = 198: (0, 24, 10, 9, 31, 3, 33, 3, 21, 52, 10, 0)
s = 199: (0, 29, 15, 19, 52, 5, 20, 4, 10, 32, 6, 0)
s = 200: (0, 22, 7, 8, 26, 7, 19, 5, 10, 27, 10, 0)
************************************************************************
ES/LS-VALUES:
jobnr.   ES(i)    LS(i)
------------------------------------------------------------------------
  0        0        0
  1        0       59
  2        0       57
  3        0       51
  4        5       57
  5        5       60
  6        6       63
  7       17       70
  8       17       70
  9        6       62
 10       19       72
 11       20       74
************************************************************************
BIG-M-VALUES:
M1 = 46, M2 = 179
************************************************************************
